System = Vasp-SCF192NBANDS
ENCUT = 400
PREC = Accurate

ISMEAR = 0
SIGMA = 0.05
EDIFF = 1E-6

NBANDS = 192
