Special k-points for band structure
60
line-mode
reciprocal
    0.3750000000     0.3750000000     0.7500000000 1    K 
    0.5000000000     0.5000000000     0.5000000000 1    L 

    0.5000000000     0.5000000000     0.5000000000 1    L 
    0.0000000000     0.0000000000     0.0000000000 1    GAMMA

    0.0000000000     0.0000000000     0.0000000000 1    GAMMA
    0.5000000000     0.0000000000     0.5000000000 1    X 

    0.5000000000     0.0000000000     0.5000000000 1    X 
    0.5000000000     0.2500000000     0.7500000000 1    W 

    0.5000000000     0.2500000000     0.7500000000 1    W 
    0.0000000000     0.0000000000     0.0000000000 1    GAMMA

    0.0000000000     0.0000000000     0.0000000000 1    GAMMA
    0.3750000000     0.3750000000     0.7500000000 1    K 
