System = Vasp-wannier5.4.4
ALGO = NONE
NELM = 1
LWAVE = .FALSE.
LCHARG = .FALSE.
ISMEAR = 0
SIGMA = 0.05
NBANDS = 192
LWANNIER90 = .TRUE.
LWRITE_MMN_AMN = .TRUE.
