SYSTEM = cya-vasp-AIMD
PREC = Normal
ISMEAR = 0
SIGMA = 0.05
NSW = 10000
EDIFF = 1E-6
NELM = 200
ALGO = VeryFast
NELMIN = 8
TEBEG = 300
MDALGO = 2
SMASS = 0
POTIM = 1
IBRION = 0
ISIF = 2
ISYM = 0
LREAL = Auto
NCORE = 8
LCHARG = .FALSE.
LWAVE = .FALSE.
